dates = {'2022-01-18','2022-01-19','2022-01-20','2022-01-21','2022-01-22','2022-01-23','2022-01-24'};

daysOfWeek = [Tuesday,Wednesday,Thursday,Friday,Saturday,Sunday,Monday];

% For this week, how many people will be here.
numPeople = [162,162,162,163,162,162,162];

% Physical workers need 50 to 100 % more nutrients per day.
numPhysicalWorkers = [56.5,56.5,56.5,56.5,56.5,56.5,56.5];

% Males need +25% more nutrients per day.
numMen = [136,136,136,139,139,136,136];

% Num people who do not eat categories. contains = {none, meat, milk, gluten, egg, nut, seed, sugars}
numRefusals = [| 0,0,16,9,3,0,0,0 | 0,0,16,9,3,0,0,0 | 0,0,16,9,3,0,0,0 | 0,0,0,0,2,15,7,0 | 0,0,0,0,2,0,0,5 | 0,0,0,0,2,0,0,5 | 0,0,0,0,2,0,0,5 |];

